p tw 65 71
1 2
2 13
3 4
4 5
4 43
5 6
6 7
7 8
8 9
9 10
10 11
11 12
12 14
13 24
13 46
14 15
14 19
15 16
16 17
17 18
18 59
19 20
20 21
21 22
22 23
23 25
24 35
25 26
25 31
26 27
27 28
28 29
28 31
29 30
30 34
31 32
32 33
33 34
34 36
35 59
36 37
37 38
38 39
39 40
39 59
40 41
41 42
42 59
43 44
44 45
45 47
46 57
47 48
48 49
48 51
49 50
50 55
51 52
52 53
53 54
54 55
55 56
56 58
57 63
58 59
59 60
60 61
61 62
63 64
64 65
65 3
